   64
 
Cu     0.00000     0.00000     0.00000
Cu     0.00000    -2.21279    -3.12935
Cu    -1.91633     1.10639    -3.12935
Cu     1.91633     1.10639    -3.12935
Cl     0.00000     0.00000    -2.34701
Cl     0.00000     2.21279     0.78234
Cl     1.91633    -1.10639     0.78234
Cl    -1.91633    -1.10639     0.78234
Cu     3.83266    -2.21279    -3.12935
Cu     3.83266    -4.42557    -6.25871
Cu     1.91633    -1.10639    -6.25871
Cu     5.74899    -1.10639    -6.25871
Cl     3.83266    -2.21279    -5.47637
Cl     3.83266     0.00000    -2.34701
Cl     5.74899    -3.31918    -2.34702
Cl     1.91633    -3.31918    -2.34701
Cu    -0.00000     4.42557    -3.12935
Cu    -0.00000     2.21279    -6.25871
Cu    -1.91633     5.53197    -6.25871
Cu     1.91633     5.53197    -6.25871
Cl    -0.00000     4.42557    -5.47637
Cl    -0.00000     6.63836    -2.34701
Cl     1.91633     3.31918    -2.34701
Cl    -1.91633     3.31918    -2.34701
Cu     3.83266     2.21279    -6.25871
Cu     3.83266     0.00000    -9.38806
Cu     1.91633     3.31918    -9.38806
Cu     5.74899     3.31918    -9.38806
Cl     3.83266     2.21279    -8.60572
Cl     3.83266     4.42557    -5.47637
Cl     5.74899     1.10639    -5.47637
Cl     1.91633     1.10639    -5.47637
Cu     3.83266     2.21279     3.12935
Cu     3.83266     0.00000     0.00000
Cu     1.91633     3.31918     0.00000
Cu     5.74899     3.31918     0.00000
Cl     3.83266     2.21279     0.78234
Cl     3.83266     4.42557     3.91169
Cl     5.74899     1.10639     3.91169
Cl     1.91633     1.10639     3.91169
Cu     7.66532    -0.00000    -0.00000
Cu     7.66532    -2.21279    -3.12935
Cu     5.74899     1.10639    -3.12935
Cu     9.58165     1.10639    -3.12935
Cl     7.66532    -0.00000    -2.34702
Cl     7.66532     2.21279     0.78234
Cl     9.58165    -1.10639     0.78234
Cl     5.74899    -1.10639     0.78234
Cu     3.83266     6.63836    -0.00000
Cu     3.83266     4.42557    -3.12935
Cu     1.91633     7.74476    -3.12935
Cu     5.74899     7.74476    -3.12935
Cl     3.83266     6.63836    -2.34702
Cl     3.83266     8.85115     0.78234
Cl     5.74899     5.53197     0.78234
Cl     1.91633     5.53197     0.78234
Cu     7.66532     4.42557    -3.12935
Cu     7.66532     2.21279    -6.25871
Cu     5.74899     5.53197    -6.25871
Cu     9.58165     5.53197    -6.25871
Cl     7.66532     4.42557    -5.47637
Cl     7.66532     6.63836    -2.34702
Cl     9.58165     3.31918    -2.34702
Cl     5.74899     3.31918    -2.34701
